c FILE: i080-113

c SOURCE: From steinlib

c DESCRIPTION: Steinlib instance with 80 nodes and 350 edges.

p edge 80 350
e 1 4
e 1 8
e 1 10
e 1 13
e 1 19
e 1 20
e 1 25
e 1 34
e 1 42
e 1 47
e 1 49
e 1 50
e 1 51
e 1 56
e 1 61
e 1 64
e 1 65
e 1 78
e 2 6
e 2 19
e 2 29
e 2 30
e 2 42
e 2 45
e 2 59
e 2 62
e 2 64
e 2 79
e 3 4
e 3 26
e 3 31
e 3 38
e 3 43
e 3 56
e 3 57
e 3 58
e 3 61
e 3 63
e 3 66
e 4 9
e 4 10
e 4 11
e 4 34
e 4 67
e 5 7
e 5 21
e 5 26
e 5 31
e 5 32
e 5 44
e 5 55
e 6 7
e 6 15
e 6 16
e 6 21
e 6 22
e 6 46
e 6 52
e 6 61
e 6 62
e 6 64
e 6 68
e 7 13
e 7 25
e 7 32
e 7 35
e 7 41
e 7 57
e 7 67
e 7 71
e 7 72
e 7 77
e 8 22
e 8 39
e 8 43
e 8 61
e 8 78
e 9 10
e 9 29
e 9 32
e 9 42
e 9 70
e 9 73
e 10 16
e 10 24
e 10 32
e 10 34
e 10 38
e 10 39
e 10 59
e 10 60
e 10 63
e 10 75
e 11 14
e 11 16
e 11 23
e 11 26
e 11 39
e 11 63
e 12 27
e 12 42
e 12 58
e 13 16
e 13 36
e 13 43
e 13 47
e 13 56
e 13 75
e 14 18
e 14 53
e 14 54
e 14 62
e 15 16
e 15 24
e 15 25
e 15 41
e 15 61
e 15 62
e 16 39
e 16 62
e 16 72
e 16 75
e 16 78
e 17 18
e 17 21
e 17 24
e 17 28
e 17 38
e 17 51
e 17 54
e 17 55
e 17 56
e 17 59
e 17 75
e 18 20
e 18 43
e 18 45
e 18 54
e 18 55
e 18 58
e 18 59
e 18 65
e 18 70
e 19 22
e 19 34
e 19 49
e 19 52
e 19 58
e 19 72
e 20 25
e 20 28
e 20 44
e 20 47
e 20 54
e 20 70
e 20 77
e 21 33
e 21 38
e 21 49
e 21 59
e 22 37
e 23 38
e 23 56
e 23 70
e 23 78
e 24 31
e 24 39
e 24 46
e 24 51
e 24 62
e 24 79
e 25 40
e 25 52
e 25 53
e 25 58
e 26 32
e 26 37
e 26 38
e 26 57
e 26 64
e 26 72
e 26 74
e 27 32
e 27 42
e 27 45
e 27 55
e 27 64
e 27 78
e 28 32
e 28 36
e 28 42
e 28 44
e 28 55
e 28 62
e 28 71
e 29 33
e 29 35
e 29 39
e 29 75
e 29 79
e 30 38
e 30 41
e 30 44
e 30 48
e 30 54
e 30 62
e 30 65
e 30 71
e 30 73
e 30 80
e 31 48
e 31 65
e 31 75
e 32 33
e 32 36
e 32 46
e 32 50
e 32 62
e 32 66
e 32 72
e 32 80
e 33 48
e 33 52
e 33 66
e 33 71
e 34 36
e 34 40
e 34 68
e 35 40
e 35 43
e 35 61
e 35 73
e 36 50
e 36 53
e 36 58
e 36 65
e 36 72
e 36 80
e 37 55
e 37 57
e 37 75
e 38 47
e 38 52
e 38 57
e 38 69
e 39 44
e 39 62
e 40 41
e 40 51
e 40 56
e 40 60
e 40 62
e 40 63
e 40 65
e 41 51
e 41 66
e 41 74
e 42 45
e 42 64
e 43 50
e 43 59
e 43 64
e 44 67
e 45 51
e 45 70
e 45 71
e 46 52
e 46 66
e 47 48
e 47 53
e 47 54
e 47 56
e 47 57
e 47 58
e 47 71
e 48 52
e 48 59
e 48 64
e 48 72
e 49 60
e 49 61
e 49 63
e 49 76
e 50 56
e 50 57
e 50 69
e 50 79
e 51 52
e 51 53
e 51 60
e 51 71
e 52 63
e 52 64
e 52 67
e 52 74
e 53 59
e 53 69
e 53 73
e 53 75
e 54 57
e 54 59
e 54 65
e 54 66
e 55 57
e 55 58
e 55 78
e 57 74
e 57 76
e 57 80
e 58 59
e 58 60
e 58 61
e 58 71
e 58 78
e 59 64
e 59 65
e 59 75
e 59 77
e 60 64
e 60 72
e 60 74
e 61 65
e 61 66
e 62 63
e 62 65
e 62 66
e 62 68
e 63 71
e 63 75
e 63 78
e 64 67
e 64 68
e 64 69
e 64 72
e 64 79
e 65 66
e 65 73
e 66 74
e 66 76
e 66 78
e 67 69
e 67 78
e 68 76
e 68 78
e 69 77
e 70 74
e 72 75
e 72 79
e 73 74
e 76 77
